column=7;
row=7;
Board=[|0,6,0,0,7,0,0|0,0,6,3,0,0,2|0,0,0,0,5,0,0|0,2,0,0,1,6,0|0,0,5,0,2,0,6|0,3,0,2,0,0,4|0,0,0,0,0,2,5|];
horizontal=[|0,0,0,0,0,0|0,1,0,1,0,1|0,0,0,1,1,1|0,1,1,0,0,1|1,1,0,1,0,1|0,0,0,0,1,1|0,0,0,0,1,0|];
vertical=[|0,1,0,0,0,0,1|0,0,0,0,1,0,1|0,0,0,0,0,0,0|0,0,0,0,1,1,1|0,1,0,1,0,0,0|0,0,0,0,0,0,1|];
